========================================================== 
File name: C:\DEGR\assets\definitions\MSRCPSP_Gen\100_20_64_10_B.def
Creation date: Wed May 03 10:39:00 CEST 2023
Website: http://imopse.ii.pwr.edu.pl/ 
Reference: 
Myszkowski P. B., Skowronski M. E., Olech L., Oslizlo K., 
Hybrid Ant Colony Optimization in solving Multi-Skill Resource-Constrained Project Scheduling Problem, 
Soft Computing, DOI: DOI 10.1007/s00500-014-1455-x 
========================================================== 
General characteristics: 
Tasks: 100
Resources: 20
Precedence relations: 64
Number of skill types: 10
========================================================== 
ResourceID 	 Salary 	 Skills 
1	 	 	93.7	 	 Q1: 0 	  Q7: 0 	  Q8: 3 	  Q2: 0 	  Q6: 0 	  Q5: 3 	  Q9: 2 	  Q3: 3 	 
2	 	 	84.6	 	 Q0: 1 	  Q6: 0 	  Q5: 3 	  Q1: 1 	  Q2: 1 	  Q7: 1 	  Q8: 2 	 
3	 	 	19.8	 	 Q7: 1 	  Q9: 2 	  Q2: 0 	  Q6: 1 	  Q5: 1 	 
4	 	 	66.4	 	 Q9: 1 	  Q5: 2 	  Q8: 3 	  Q0: 2 	 
5	 	 	35.2	 	 Q6: 1 	 
6	 	 	37.5	 	 Q5: 2 	  Q2: 1 	  Q4: 2 	  Q6: 2 	  Q9: 3 	 
7	 	 	24.7	 	 Q2: 1 	  Q4: 3 	  Q9: 1 	 
8	 	 	67.0	 	 Q8: 2 	  Q4: 3 	 
9	 	 	29.4	 	 Q7: 0 	  Q6: 1 	  Q9: 1 	  Q1: 0 	  Q3: 2 	  Q4: 1 	  Q8: 3 	 
10	 	 	75.0	 	 Q9: 2 	  Q4: 1 	  Q3: 1 	  Q0: 0 	  Q2: 3 	  Q5: 3 	 
11	 	 	25.0	 	 Q6: 1 	  Q2: 3 	  Q9: 1 	  Q0: 3 	  Q4: 2 	  Q1: 3 	  Q7: 2 	  Q8: 2 	 
12	 	 	46.9	 	 Q8: 2 	  Q9: 3 	  Q0: 1 	  Q2: 1 	  Q6: 3 	  Q5: 2 	  Q7: 1 	  Q3: 3 	  Q1: 3 	 
13	 	 	83.6	 	 Q8: 3 	  Q0: 2 	  Q1: 0 	  Q4: 1 	  Q3: 1 	  Q9: 1 	 
14	 	 	25.5	 	 Q2: 1 	  Q0: 1 	  Q9: 2 	 
15	 	 	15.1	 	 Q8: 3 	  Q9: 3 	  Q6: 1 	  Q0: 3 	  Q5: 1 	 
16	 	 	18.8	 	 Q7: 2 	  Q3: 1 	  Q9: 0 	  Q5: 1 	  Q0: 1 	 
17	 	 	64.3	 	 Q5: 1 	  Q4: 2 	  Q9: 2 	  Q1: 3 	  Q2: 2 	  Q0: 1 	  Q3: 0 	  Q6: 0 	  Q7: 1 	 
18	 	 	86.3	 	 Q1: 2 	  Q7: 3 	  Q0: 2 	  Q9: 3 	  Q2: 3 	  Q5: 2 	  Q3: 2 	 
19	 	 	97.7	 	 Q6: 1 	 
20	 	 	65.8	 	 Q3: 1 	  Q0: 2 	  Q2: 0 	 
========================================================== 
TaskID 	 Duration 	 Skill 	 Predecessor IDs 
1	15	Q6:	2
2	25	Q0:	0
3	9	Q9:	2
4	29	Q3:	0
5	33	Q4:	3
6	39	Q5:	3
7	14	Q3:	3
8	21	Q5:	1
9	29	Q9:	1
10	31	Q0:	3
11	26	Q2:	1
12	14	Q6:	1
13	9	Q4:	1	1
14	19	Q1:	3
15	34	Q3:	3
16	26	Q4:	3
17	36	Q6:	3
18	9	Q9:	2
19	16	Q9:	2
20	35	Q1:	3
21	39	Q1:	0	19
22	35	Q1:	1
23	36	Q4:	3
24	33	Q1:	1
25	32	Q2:	0
26	36	Q8:	2
27	18	Q3:	3
28	13	Q3:	3
29	15	Q9:	0
30	11	Q4:	1
31	10	Q4:	2
32	35	Q0:	0
33	13	Q6:	3	20
34	34	Q2:	3
35	9	Q7:	3
36	26	Q3:	0	2
37	36	Q6:	3	27	7
38	26	Q9:	2	30
39	32	Q4:	3	25	18
40	39	Q0:	1
41	37	Q7:	2	14
42	15	Q5:	1
43	10	Q1:	1
44	34	Q4:	3	31	24
45	21	Q1:	3	33
46	21	Q3:	0	27
47	23	Q9:	0
48	10	Q1:	2	25
49	18	Q1:	2
50	21	Q5:	1
51	25	Q1:	3	13
52	24	Q9:	1	28	40
53	36	Q1:	3	8
54	39	Q6:	1	30
55	21	Q0:	3	54
56	32	Q5:	3
57	22	Q5:	1
58	14	Q0:	0	11	43
59	13	Q6:	1	10
60	11	Q3:	2	13
61	29	Q3:	1	57
62	29	Q2:	1	56	40
63	10	Q2:	0	17
64	22	Q1:	3
65	29	Q6:	1	53
66	17	Q6:	3	35
67	37	Q4:	3
68	19	Q8:	3	7
69	36	Q1:	2	33
70	9	Q4:	2
71	27	Q3:	0
72	32	Q8:	2
73	10	Q3:	0
74	36	Q8:	2
75	23	Q7:	2	70
76	25	Q7:	3
77	20	Q9:	2
78	20	Q7:	3	72	10
79	35	Q0:	3	21
80	21	Q0:	1	37	32
81	21	Q0:	1	9	54
82	25	Q1:	0	65
83	18	Q6:	2	25	78
84	18	Q9:	3	16	52
85	39	Q2:	3
86	10	Q6:	2	74
87	9	Q0:	3	45	79
88	35	Q2:	3	32
89	15	Q0:	3	75	48
90	10	Q8:	3	47	12
91	30	Q4:	3
92	17	Q2:	0	74	30
93	31	Q4:	1
94	27	Q1:	3	20	70
95	24	Q4:	1	21
96	33	Q0:	0	24
97	32	Q2:	3	64
98	38	Q9:	1	88
99	27	Q6:	0	11
100	31	Q7:	1	56
========================================================== 